* ENCODING=ISO-8859-1
NAME          CPLEX
ROWS
 N  obj1    
 G  c1      
 G  c2      
 G  c3      
 G  c4      
 G  c5      
 G  c6      
 G  c7      
 G  c8      
 G  c9      
 G  c10     
 G  c11     
 G  c12     
 G  c13     
 G  c14     
 G  c15     
 G  c16     
 G  c17     
 G  c18     
 G  c19     
 G  c20     
 G  c21     
 G  c22     
 G  c23     
 G  c24     
 G  c25     
 G  c26     
 G  c27     
 G  c28     
 G  c29     
 G  c30     
 G  c31     
 G  c32     
 G  c33     
 G  c34     
 G  c35     
 G  c36     
 G  c37     
 G  c38     
 G  c39     
 G  c40     
 G  c41     
 G  c42     
 G  c43     
 G  c44     
 G  c45     
 G  c46     
 G  c47     
 G  c48     
 G  c49     
 G  c50     
COLUMNS
    MARK0000  'MARKER'                 'INTORG'
    x1        obj1                            1
    x1        c8                            755
    x1        c15                           952
    x1        c17                           980
    x1        c38                           668
    x2        obj1                            1
    x2        c8                            504
    x2        c25                           338
    x2        c35                           488
    x2        c38                           354
    x2        c44                           992
    x3        obj1                            1
    x3        c4                            203
    x3        c13                           718
    x3        c41                           245
    x4        obj1                            1
    x4        c4                            433
    x4        c17                           674
    x4        c20                           430
    x4        c31                           287
    x4        c32                           409
    x4        c42                           839
    x4        c45                           509
    x4        c47                           296
    x5        obj1                            1
    x5        c2                            294
    x5        c25                           300
    x5        c39                           283
    x6        obj1                            1
    x6        c8                            607
    x6        c15                           444
    x6        c25                           942
    x6        c32                           907
    x6        c48                           818
    x7        obj1                            1
    x7        c8                            174
    x8        obj1                            1
    x8        c9                            393
    x8        c18                           417
    x8        c21                           440
    x8        c33                           277
    x8        c41                           831
    x8        c48                           974
    x9        obj1                            1
    x9        c2                            714
    x9        c13                           405
    x9        c24                           158
    x9        c33                           287
    x10       obj1                            1
    x10       c1                            980
    x10       c23                           578
    x10       c24                           104
    x10       c26                           685
    x10       c27                           686
    x10       c28                           795
    x10       c36                           659
    x11       obj1                            1
    x11       c6                            403
    x11       c16                           256
    x11       c22                           458
    x11       c34                           725
    x11       c37                           889
    x11       c48                           288
    x12       obj1                            1
    x12       c7                            752
    x12       c12                           104
    x12       c19                           358
    x12       c29                           702
    x12       c34                           396
    x12       c35                           824
    x12       c49                           654
    x13       obj1                            1
    x13       c2                            329
    x13       c6                            242
    x13       c25                           681
    x14       obj1                            1
    x14       c4                            272
    x14       c9                            495
    x14       c21                           869
    x14       c40                           512
    x14       c45                           972
    x15       obj1                            1
    x15       c3                            430
    x15       c42                           782
    x16       obj1                            1
    x16       c2                            870
    x16       c4                            645
    x16       c20                           645
    x16       c29                           352
    x16       c40                           229
    x17       obj1                            1
    x17       c21                           445
    x17       c30                           965
    x18       obj1                            1
    x18       c22                           455
    x18       c29                           919
    x18       c31                           491
    x18       c40                           259
    x18       c46                           766
    x19       obj1                            1
    x19       c2                            614
    x19       c3                            970
    x19       c33                           640
    x19       c49                           602
    x20       obj1                            1
    x20       c7                            110
    x20       c10                           482
    x20       c19                           725
    x20       c20                           942
    x20       c24                           993
    x20       c26                           413
    x20       c27                           729
    x20       c36                           216
    x20       c45                           727
    x20       c50                           672
    x21       obj1                            1
    x21       c1                            782
    x21       c28                           978
    x21       c39                           198
    x21       c41                           242
    x21       c43                           907
    x22       obj1                            1
    x22       c14                           976
    x22       c18                           385
    x22       c21                           343
    x22       c22                           798
    x22       c38                           228
    x22       c40                           751
    x22       c42                           423
    x22       c49                           189
    x23       obj1                            1
    x23       c4                            294
    x23       c9                            387
    x23       c10                           839
    x23       c14                           640
    x23       c18                           509
    x24       obj1                            1
    x24       c20                           880
    x24       c27                           865
    x25       obj1                            1
    x25       c5                            973
    x25       c10                           485
    x25       c23                           245
    x25       c28                           990
    x25       c30                           562
    x25       c38                           120
    x25       c43                           865
    x26       obj1                            1
    x26       c12                           622
    x26       c31                           389
    x26       c35                           557
    x26       c39                           192
    x26       c42                           563
    x27       obj1                            1
    x27       c5                            932
    x27       c7                            952
    x27       c11                           783
    x27       c19                           701
    x27       c24                           893
    x27       c33                           905
    x28       obj1                            1
    x28       c39                           383
    x29       obj1                            1
    x29       c1                            234
    x29       c9                            680
    x29       c15                           742
    x29       c17                           836
    x29       c22                           761
    x29       c34                           794
    x29       c36                           502
    x29       c37                           431
    x29       c42                           477
    x29       c46                           466
    x30       obj1                            1
    x30       c6                            800
    x30       c11                           636
    x30       c12                           169
    x30       c14                           507
    x30       c35                           122
    x30       c42                           367
    x31       obj1                            1
    x31       c11                           139
    x31       c13                           785
    x31       c15                           920
    x31       c18                           544
    x31       c20                           624
    x31       c25                           165
    x31       c26                           200
    x31       c31                           280
    x31       c33                           193
    x31       c37                           843
    x32       obj1                            1
    x32       c6                            557
    x32       c30                           403
    x32       c31                           279
    x32       c44                           800
    x32       c48                           625
    x32       c50                           846
    x33       obj1                            1
    x33       c2                            695
    x33       c24                           417
    x33       c30                           898
    x33       c46                           114
    x33       c47                           121
    x34       obj1                            1
    x34       c7                            670
    x34       c35                           182
    x35       obj1                            1
    x35       c6                            549
    x35       c32                           162
    x35       c34                           477
    x35       c47                           457
    x36       obj1                            1
    x36       c14                           413
    x36       c23                           519
    x36       c26                           116
    x36       c43                           444
    x37       obj1                            1
    x37       c7                            910
    x37       c16                           487
    x37       c27                           765
    x37       c35                           964
    x37       c37                           560
    x37       c38                           474
    x37       c49                           896
    x38       obj1                            1
    x38       c3                            695
    x38       c5                            335
    x38       c17                           279
    x38       c18                           965
    x38       c27                           400
    x38       c29                           181
    x38       c34                           979
    x39       obj1                            1
    x39       c1                            825
    x39       c12                           181
    x39       c25                           757
    x39       c32                           106
    x39       c38                           877
    x39       c50                           641
    x40       obj1                            1
    x40       c18                           571
    x40       c29                           147
    x40       c31                           633
    x40       c47                           836
    x41       obj1                            1
    x41       c3                            467
    x41       c5                            855
    x41       c26                           651
    x41       c28                           323
    x41       c44                           729
    x41       c49                           750
    x42       obj1                            1
    x42       c7                            684
    x42       c14                           910
    x42       c16                           818
    x42       c38                           468
    x42       c41                           762
    x42       c42                           264
    x43       obj1                            1
    x43       c9                            881
    x43       c13                           552
    x43       c15                           200
    x43       c16                           687
    x43       c30                           459
    x43       c37                           910
    x43       c43                           814
    x43       c44                           576
    x43       c48                           902
    x44       obj1                            1
    x44       c11                           898
    x44       c19                           433
    x45       obj1                            1
    x45       c26                           591
    x45       c31                           547
    x46       obj1                            1
    x46       c11                           262
    x46       c27                           113
    x46       c32                           722
    x47       obj1                            1
    x47       c4                            338
    x47       c14                           692
    x47       c24                           699
    x47       c32                           859
    x48       obj1                            1
    x48       c5                            458
    x48       c16                           137
    x48       c47                           524
    x49       obj1                            1
    x49       c11                           578
    x49       c13                           526
    x49       c21                           152
    x49       c34                           770
    x49       c37                           182
    x49       c49                           545
    x50       obj1                            1
    x50       c6                            462
    x50       c23                           285
    x50       c26                           243
    MARK0001  'MARKER'                 'INTEND'
RHS
    rhs       c1                           1411
    rhs       c2                           1758
    rhs       c3                           1281
    rhs       c4                           1093
    rhs       c5                           1777
    rhs       c6                           1507
    rhs       c7                           2039
    rhs       c8                           1020
    rhs       c9                           1418
    rhs       c10                           903
    rhs       c11                          1648
    rhs       c12                           538
    rhs       c13                          1493
    rhs       c14                          2069
    rhs       c15                          1629
    rhs       c16                          1193
    rhs       c17                          1385
    rhs       c18                          1696
    rhs       c19                          1109
    rhs       c20                          1761
    rhs       c21                          1125
    rhs       c22                          1236
    rhs       c23                           814
    rhs       c24                          1632
    rhs       c25                          1592
    rhs       c26                          1450
    rhs       c27                          1779
    rhs       c28                          1543
    rhs       c29                          1151
    rhs       c30                          1644
    rhs       c31                          1453
    rhs       c32                          1583
    rhs       c33                          1151
    rhs       c34                          2071
    rhs       c35                          1569
    rhs       c36                           689
    rhs       c37                          1908
    rhs       c38                          1595
    rhs       c39                           528
    rhs       c40                           876
    rhs       c41                          1040
    rhs       c42                          1858
    rhs       c43                          1515
    rhs       c44                          1549
    rhs       c45                          1104
    rhs       c46                           673
    rhs       c47                          1117
    rhs       c48                          1804
    rhs       c49                          1818
    rhs       c50                          1080
BOUNDS
 LI bnd       x1        0
 LI bnd       x2        0
 LI bnd       x3        0
 LI bnd       x4        0
 LI bnd       x5        0
 LI bnd       x6        0
 LI bnd       x7        0
 LI bnd       x8        0
 LI bnd       x9        0
 LI bnd       x10       0
 LI bnd       x11       0
 LI bnd       x12       0
 LI bnd       x13       0
 LI bnd       x14       0
 LI bnd       x15       0
 LI bnd       x16       0
 LI bnd       x17       0
 LI bnd       x18       0
 LI bnd       x19       0
 LI bnd       x20       0
 LI bnd       x21       0
 LI bnd       x22       0
 LI bnd       x23       0
 LI bnd       x24       0
 LI bnd       x25       0
 LI bnd       x26       0
 LI bnd       x27       0
 LI bnd       x28       0
 LI bnd       x29       0
 LI bnd       x30       0
 LI bnd       x31       0
 LI bnd       x32       0
 LI bnd       x33       0
 LI bnd       x34       0
 LI bnd       x35       0
 LI bnd       x36       0
 LI bnd       x37       0
 LI bnd       x38       0
 LI bnd       x39       0
 LI bnd       x40       0
 LI bnd       x41       0
 LI bnd       x42       0
 LI bnd       x43       0
 LI bnd       x44       0
 LI bnd       x45       0
 LI bnd       x46       0
 LI bnd       x47       0
 LI bnd       x48       0
 LI bnd       x49       0
 LI bnd       x50       0
ENDATA
